NAME: tsp_336
COMMENT: Random TSP instance
TYPE: TSP
DIMENSION: 50
EDGE_WEIGHT_TYPE: EUC_2D
NODE_COORD_SECTION
1 591 79
2 586 162
3 712 259
4 498 29
5 346 977
6 828 378
7 311 450
8 175 706
9 615 559
10 59 307
11 19 800
12 46 435
13 91 405
14 629 16
15 508 667
16 319 239
17 318 581
18 695 707
19 683 464
20 402 504
21 686 883
22 162 108
23 521 218
24 517 19
25 409 849
26 359 265
27 863 914
28 391 155
29 185 689
30 846 199
31 862 599
32 612 215
33 870 136
34 295 336
35 711 603
36 129 153
37 367 989
38 644 609
39 764 120
40 862 94
41 95 485
42 106 504
43 694 818
44 562 823
45 750 862
46 210 137
47 691 683
48 327 765
49 511 666
50 830 494
